$compass
title
cup t1-s0
basis
x2c-TZVPall
geometry
file=cup-2t1.xyz
end geometry
check
group
D(2h)
$end

$xuanyuan    
heff
21           
$end

$scf
roks
DFT
PBE0
spin
2
molden
threshconv
1.d-9 1.d-8
$end

$tddft
iroot
12
istore
1
crit_vec
1.d-7
crit_e
1.d-9
gridtol
1.d-7
iprt
2
cthrd
0.0001
$end

$resp
gridol
1.d-7
iprt
1
QUAD
FNAC
single     # ground-state to excited-state NACMEs
norder
1
method
2
nfiles
1
states     # Specify which excited states are used for ground-state¨Cexcited-state NAC calculations.
1
1 8 1      
$end
